0
Node Left Objective IInf Best_Integer Best_Bound ItCnt Gap
0 0 0.2276 7 0.2276 26
0 2 0.2276 22 0.2276 26 0 0
CPXPARAM_MIP_Cuts_Disjunctive-LiftProj-MIRCut:Disjunctive 0
CPXPARAM_MIP_Cuts_Disjunctive-LiftProj-MIRCut:LiftProj 0
CPXPARAM_MIP_Cuts_Disjunctive-LiftProj-MIRCut:MIRCut 0
1
Node Left Objective IInf Best_Integer Best_Bound ItCnt Gap
0 0 0.0044 4 0.0044 56
0 2 0.0044 23 0.0044 56 0 0
CPXPARAM_MIP_Cuts_Disjunctive-LiftProj-MIRCut:Disjunctive 0
CPXPARAM_MIP_Cuts_Disjunctive-LiftProj-MIRCut:LiftProj 0
CPXPARAM_MIP_Cuts_Disjunctive-LiftProj-MIRCut:MIRCut 0
2
Node Left Objective IInf Best_Integer Best_Bound ItCnt Gap
0 0 3.6709 11 3.6709 25
0 2 3.6709 19 3.6709 25 0 0
CPXPARAM_MIP_Cuts_Disjunctive-LiftProj-MIRCut:Disjunctive 0
CPXPARAM_MIP_Cuts_Disjunctive-LiftProj-MIRCut:LiftProj 0
CPXPARAM_MIP_Cuts_Disjunctive-LiftProj-MIRCut:MIRCut 0
3
Node Left Objective IInf Best_Integer Best_Bound ItCnt Gap
0 0 0.5055 7 0.5055 91
0 2 0.5055 13 0.5055 91 0 0
CPXPARAM_MIP_Cuts_Disjunctive-LiftProj-MIRCut:Disjunctive 0
CPXPARAM_MIP_Cuts_Disjunctive-LiftProj-MIRCut:LiftProj 0
CPXPARAM_MIP_Cuts_Disjunctive-LiftProj-MIRCut:MIRCut 0
4
Node Left Objective IInf Best_Integer Best_Bound ItCnt Gap
0 0 0.1757 10 0.1757 26
0 2 0.1757 25 0.1757 26 0 0
CPXPARAM_MIP_Cuts_Disjunctive-LiftProj-MIRCut:Disjunctive 0
CPXPARAM_MIP_Cuts_Disjunctive-LiftProj-MIRCut:LiftProj 0
CPXPARAM_MIP_Cuts_Disjunctive-LiftProj-MIRCut:MIRCut 0
5
Node Left Objective IInf Best_Integer Best_Bound ItCnt Gap
0 0 0.0079 9 0.0079 29
0 2 0.0079 22 0.0079 29 0 0
CPXPARAM_MIP_Cuts_Disjunctive-LiftProj-MIRCut:Disjunctive 0
CPXPARAM_MIP_Cuts_Disjunctive-LiftProj-MIRCut:LiftProj 0
CPXPARAM_MIP_Cuts_Disjunctive-LiftProj-MIRCut:MIRCut 0
6
Node Left Objective IInf Best_Integer Best_Bound ItCnt Gap
0 0 1.5650 13 1.5650 102
0 0 1.5650 13 MIRcuts:11 106
0 0 1.5650 13 MIRcuts:8 112
0 2 1.5650 22 1.5650 112 0 0
CPXPARAM_MIP_Cuts_Disjunctive-LiftProj-MIRCut:Disjunctive 3
CPXPARAM_MIP_Cuts_Disjunctive-LiftProj-MIRCut:LiftProj 0
CPXPARAM_MIP_Cuts_Disjunctive-LiftProj-MIRCut:MIRCut 0
7
Node Left Objective IInf Best_Integer Best_Bound ItCnt Gap
0 0 0.0000 11 0.0000 41
0 2 0.0000 21 0.0000 41 0 0
CPXPARAM_MIP_Cuts_Disjunctive-LiftProj-MIRCut:Disjunctive 0
CPXPARAM_MIP_Cuts_Disjunctive-LiftProj-MIRCut:LiftProj 0
CPXPARAM_MIP_Cuts_Disjunctive-LiftProj-MIRCut:MIRCut 0
8
Node Left Objective IInf Best_Integer Best_Bound ItCnt Gap
0 0 0.7579 8 0.7579 26
0 2 0.7579 25 0.7579 26 0 0
CPXPARAM_MIP_Cuts_Disjunctive-LiftProj-MIRCut:Disjunctive 0
CPXPARAM_MIP_Cuts_Disjunctive-LiftProj-MIRCut:LiftProj 0
CPXPARAM_MIP_Cuts_Disjunctive-LiftProj-MIRCut:MIRCut 0
9
Node Left Objective IInf Best_Integer Best_Bound ItCnt Gap
0 0 0.1767 5 0.1767 30
0 2 0.1767 21 0.1767 30 0 0
CPXPARAM_MIP_Cuts_Disjunctive-LiftProj-MIRCut:Disjunctive 0
CPXPARAM_MIP_Cuts_Disjunctive-LiftProj-MIRCut:LiftProj 0
CPXPARAM_MIP_Cuts_Disjunctive-LiftProj-MIRCut:MIRCut 0
10
Node Left Objective IInf Best_Integer Best_Bound ItCnt Gap
0 0 2.3492 6 2.3492 32
0 2 2.3492 6 2.3492 32 0 0
CPXPARAM_MIP_Cuts_Disjunctive-LiftProj-MIRCut:Disjunctive 0
CPXPARAM_MIP_Cuts_Disjunctive-LiftProj-MIRCut:LiftProj 0
CPXPARAM_MIP_Cuts_Disjunctive-LiftProj-MIRCut:MIRCut 0
11
Node Left Objective IInf Best_Integer Best_Bound ItCnt Gap
0 0 0.0007 13 0.0007 171
0 2 0.0007 21 0.0007 171 0 0
CPXPARAM_MIP_Cuts_Disjunctive-LiftProj-MIRCut:Disjunctive 0
CPXPARAM_MIP_Cuts_Disjunctive-LiftProj-MIRCut:LiftProj 0
CPXPARAM_MIP_Cuts_Disjunctive-LiftProj-MIRCut:MIRCut 0
12
Node Left Objective IInf Best_Integer Best_Bound ItCnt Gap
0 0 0.5885 8 0.5885 27
0 2 0.5885 21 0.5885 27 0 0
CPXPARAM_MIP_Cuts_Disjunctive-LiftProj-MIRCut:Disjunctive 0
CPXPARAM_MIP_Cuts_Disjunctive-LiftProj-MIRCut:LiftProj 0
CPXPARAM_MIP_Cuts_Disjunctive-LiftProj-MIRCut:MIRCut 0
13
Node Left Objective IInf Best_Integer Best_Bound ItCnt Gap
0 0 0.0000 3 0.0000 57
0 2 0.0000 17 0.0000 57 0 0
CPXPARAM_MIP_Cuts_Disjunctive-LiftProj-MIRCut:Disjunctive 0
CPXPARAM_MIP_Cuts_Disjunctive-LiftProj-MIRCut:LiftProj 0
CPXPARAM_MIP_Cuts_Disjunctive-LiftProj-MIRCut:MIRCut 0
14
Node Left Objective IInf Best_Integer Best_Bound ItCnt Gap
0 0 0.8260 8 0.8260 42
0 2 0.8260 18 0.8260 42 0 0
CPXPARAM_MIP_Cuts_Disjunctive-LiftProj-MIRCut:Disjunctive 0
CPXPARAM_MIP_Cuts_Disjunctive-LiftProj-MIRCut:LiftProj 0
CPXPARAM_MIP_Cuts_Disjunctive-LiftProj-MIRCut:MIRCut 0
15
Node Left Objective IInf Best_Integer Best_Bound ItCnt Gap
0 0 0.1151 13 0.1151 81
0 2 0.1151 23 0.1151 81 0 0
CPXPARAM_MIP_Cuts_Disjunctive-LiftProj-MIRCut:Disjunctive 0
CPXPARAM_MIP_Cuts_Disjunctive-LiftProj-MIRCut:LiftProj 0
CPXPARAM_MIP_Cuts_Disjunctive-LiftProj-MIRCut:MIRCut 0
16
Node Left Objective IInf Best_Integer Best_Bound ItCnt Gap
0 0 0.0684 11 0.0684 29
0 2 0.0684 23 0.0684 29 0 0
CPXPARAM_MIP_Cuts_Disjunctive-LiftProj-MIRCut:Disjunctive 0
CPXPARAM_MIP_Cuts_Disjunctive-LiftProj-MIRCut:LiftProj 0
CPXPARAM_MIP_Cuts_Disjunctive-LiftProj-MIRCut:MIRCut 0
17
Node Left Objective IInf Best_Integer Best_Bound ItCnt Gap
0 0 0.0103 5 0.0103 39
0 2 0.0103 18 0.0103 39 0 0
CPXPARAM_MIP_Cuts_Disjunctive-LiftProj-MIRCut:Disjunctive 0
CPXPARAM_MIP_Cuts_Disjunctive-LiftProj-MIRCut:LiftProj 0
CPXPARAM_MIP_Cuts_Disjunctive-LiftProj-MIRCut:MIRCut 0
18
Node Left Objective IInf Best_Integer Best_Bound ItCnt Gap
0 0 0.7128 8 0.7128 96
0 2 0.7128 17 0.7128 96 0 0
CPXPARAM_MIP_Cuts_Disjunctive-LiftProj-MIRCut:Disjunctive 0
CPXPARAM_MIP_Cuts_Disjunctive-LiftProj-MIRCut:LiftProj 0
CPXPARAM_MIP_Cuts_Disjunctive-LiftProj-MIRCut:MIRCut 0
19
Node Left Objective IInf Best_Integer Best_Bound ItCnt Gap
0 0 0.0496 13 0.0496 35
0 2 0.0496 23 0.0496 35 0 0
CPXPARAM_MIP_Cuts_Disjunctive-LiftProj-MIRCut:Disjunctive 0
CPXPARAM_MIP_Cuts_Disjunctive-LiftProj-MIRCut:LiftProj 0
CPXPARAM_MIP_Cuts_Disjunctive-LiftProj-MIRCut:MIRCut 0
20
Node Left Objective IInf Best_Integer Best_Bound ItCnt Gap
0 0 0.0000 5 0.0000 133
0 2 0.0000 15 0.0000 133 0 0
CPXPARAM_MIP_Cuts_Disjunctive-LiftProj-MIRCut:Disjunctive 0
CPXPARAM_MIP_Cuts_Disjunctive-LiftProj-MIRCut:LiftProj 0
CPXPARAM_MIP_Cuts_Disjunctive-LiftProj-MIRCut:MIRCut 0
21
Node Left Objective IInf Best_Integer Best_Bound ItCnt Gap
0 0 0.1195 5 0.1195 27
0 2 0.1195 19 0.1195 27 0 0
CPXPARAM_MIP_Cuts_Disjunctive-LiftProj-MIRCut:Disjunctive 0
CPXPARAM_MIP_Cuts_Disjunctive-LiftProj-MIRCut:LiftProj 0
CPXPARAM_MIP_Cuts_Disjunctive-LiftProj-MIRCut:MIRCut 0
22
Node Left Objective IInf Best_Integer Best_Bound ItCnt Gap
0 0 0.0927 13 0.0927 70
0 2 0.0927 25 0.0927 70 0 0
CPXPARAM_MIP_Cuts_Disjunctive-LiftProj-MIRCut:Disjunctive 0
CPXPARAM_MIP_Cuts_Disjunctive-LiftProj-MIRCut:LiftProj 0
CPXPARAM_MIP_Cuts_Disjunctive-LiftProj-MIRCut:MIRCut 0
23
Node Left Objective IInf Best_Integer Best_Bound ItCnt Gap
0 0 0.0182 11 0.0182 35
0 2 0.0182 19 0.0182 35 0 0
CPXPARAM_MIP_Cuts_Disjunctive-LiftProj-MIRCut:Disjunctive 0
CPXPARAM_MIP_Cuts_Disjunctive-LiftProj-MIRCut:LiftProj 0
CPXPARAM_MIP_Cuts_Disjunctive-LiftProj-MIRCut:MIRCut 0
24
Node Left Objective IInf Best_Integer Best_Bound ItCnt Gap
0 0 0.0027 9 0.0027 40
0 2 0.0027 23 0.0027 40 0 0
CPXPARAM_MIP_Cuts_Disjunctive-LiftProj-MIRCut:Disjunctive 0
CPXPARAM_MIP_Cuts_Disjunctive-LiftProj-MIRCut:LiftProj 0
CPXPARAM_MIP_Cuts_Disjunctive-LiftProj-MIRCut:MIRCut 0
25
Node Left Objective IInf Best_Integer Best_Bound ItCnt Gap
0 0 0.0000 4 0.0000 43
0 2 0.0000 6 0.0000 43 0 0
CPXPARAM_MIP_Cuts_Disjunctive-LiftProj-MIRCut:Disjunctive 0
CPXPARAM_MIP_Cuts_Disjunctive-LiftProj-MIRCut:LiftProj 0
CPXPARAM_MIP_Cuts_Disjunctive-LiftProj-MIRCut:MIRCut 0
26
Node Left Objective IInf Best_Integer Best_Bound ItCnt Gap
0 0 0.1075 9 0.1075 80
0 2 0.1075 19 0.1075 80 0 0
CPXPARAM_MIP_Cuts_Disjunctive-LiftProj-MIRCut:Disjunctive 0
CPXPARAM_MIP_Cuts_Disjunctive-LiftProj-MIRCut:LiftProj 0
CPXPARAM_MIP_Cuts_Disjunctive-LiftProj-MIRCut:MIRCut 0
27
Node Left Objective IInf Best_Integer Best_Bound ItCnt Gap
0 0 0.0160 14 0.0160 36
0 2 0.0160 23 0.0160 36 0 0
CPXPARAM_MIP_Cuts_Disjunctive-LiftProj-MIRCut:Disjunctive 0
CPXPARAM_MIP_Cuts_Disjunctive-LiftProj-MIRCut:LiftProj 0
CPXPARAM_MIP_Cuts_Disjunctive-LiftProj-MIRCut:MIRCut 0
28
Node Left Objective IInf Best_Integer Best_Bound ItCnt Gap
0 0 0.6147 11 0.6147 40
0 2 0.6147 25 0.6147 40 0 0
CPXPARAM_MIP_Cuts_Disjunctive-LiftProj-MIRCut:Disjunctive 0
CPXPARAM_MIP_Cuts_Disjunctive-LiftProj-MIRCut:LiftProj 0
CPXPARAM_MIP_Cuts_Disjunctive-LiftProj-MIRCut:MIRCut 0
29
Node Left Objective IInf Best_Integer Best_Bound ItCnt Gap
0 0 0.0995 5 0.0995 28
0 2 0.0995 19 0.0995 28 0 0
CPXPARAM_MIP_Cuts_Disjunctive-LiftProj-MIRCut:Disjunctive 0
CPXPARAM_MIP_Cuts_Disjunctive-LiftProj-MIRCut:LiftProj 0
CPXPARAM_MIP_Cuts_Disjunctive-LiftProj-MIRCut:MIRCut 0
30
Node Left Objective IInf Best_Integer Best_Bound ItCnt Gap
0 0 0.0748 11 0.0748 72
0 2 0.0748 22 0.0748 72 0 0
CPXPARAM_MIP_Cuts_Disjunctive-LiftProj-MIRCut:Disjunctive 0
CPXPARAM_MIP_Cuts_Disjunctive-LiftProj-MIRCut:LiftProj 0
CPXPARAM_MIP_Cuts_Disjunctive-LiftProj-MIRCut:MIRCut 0
31
Node Left Objective IInf Best_Integer Best_Bound ItCnt Gap
0 0 0.8841 13 0.8841 152
0 2 0.8841 28 0.8841 152 0 0
CPXPARAM_MIP_Cuts_Disjunctive-LiftProj-MIRCut:Disjunctive 0
CPXPARAM_MIP_Cuts_Disjunctive-LiftProj-MIRCut:LiftProj 0
CPXPARAM_MIP_Cuts_Disjunctive-LiftProj-MIRCut:MIRCut 0
32
Node Left Objective IInf Best_Integer Best_Bound ItCnt Gap
0 0 1.1284 10 1.1284 25
0 2 1.1284 25 1.1284 25 0 0
CPXPARAM_MIP_Cuts_Disjunctive-LiftProj-MIRCut:Disjunctive 0
CPXPARAM_MIP_Cuts_Disjunctive-LiftProj-MIRCut:LiftProj 0
CPXPARAM_MIP_Cuts_Disjunctive-LiftProj-MIRCut:MIRCut 0
33
Node Left Objective IInf Best_Integer Best_Bound ItCnt Gap
0 0 -0.0000 5 -0.0000 31
0 2 -0.0000 17 -0.0000 31 0 0
CPXPARAM_MIP_Cuts_Disjunctive-LiftProj-MIRCut:Disjunctive 0
CPXPARAM_MIP_Cuts_Disjunctive-LiftProj-MIRCut:LiftProj 0
CPXPARAM_MIP_Cuts_Disjunctive-LiftProj-MIRCut:MIRCut 0
34
Node Left Objective IInf Best_Integer Best_Bound ItCnt Gap
0 0 1.5585 13 1.5585 48
0 2 1.5585 24 1.5585 48 0 0
CPXPARAM_MIP_Cuts_Disjunctive-LiftProj-MIRCut:Disjunctive 0
CPXPARAM_MIP_Cuts_Disjunctive-LiftProj-MIRCut:LiftProj 0
CPXPARAM_MIP_Cuts_Disjunctive-LiftProj-MIRCut:MIRCut 0
35
Node Left Objective IInf Best_Integer Best_Bound ItCnt Gap
0 0 -0.0000 7 -0.0000 83
0 2 -0.0000 17 -0.0000 83 0 0
CPXPARAM_MIP_Cuts_Disjunctive-LiftProj-MIRCut:Disjunctive 0
CPXPARAM_MIP_Cuts_Disjunctive-LiftProj-MIRCut:LiftProj 0
CPXPARAM_MIP_Cuts_Disjunctive-LiftProj-MIRCut:MIRCut 0
36
Node Left Objective IInf Best_Integer Best_Bound ItCnt Gap
0 0 0.0000 9 0.0000 31
0 2 0.0000 18 0.0000 31 0 0
CPXPARAM_MIP_Cuts_Disjunctive-LiftProj-MIRCut:Disjunctive 0
CPXPARAM_MIP_Cuts_Disjunctive-LiftProj-MIRCut:LiftProj 0
CPXPARAM_MIP_Cuts_Disjunctive-LiftProj-MIRCut:MIRCut 0
37
Node Left Objective IInf Best_Integer Best_Bound ItCnt Gap
0 0 -0.0000 8 -0.0000 44
0 2 -0.0000 17 -0.0000 44 0 0
CPXPARAM_MIP_Cuts_Disjunctive-LiftProj-MIRCut:Disjunctive 0
CPXPARAM_MIP_Cuts_Disjunctive-LiftProj-MIRCut:LiftProj 0
CPXPARAM_MIP_Cuts_Disjunctive-LiftProj-MIRCut:MIRCut 0
38
Node Left Objective IInf Best_Integer Best_Bound ItCnt Gap
0 0 1.0643 12 1.0643 47
0 2 1.0643 22 1.0643 47 0 0
CPXPARAM_MIP_Cuts_Disjunctive-LiftProj-MIRCut:Disjunctive 0
CPXPARAM_MIP_Cuts_Disjunctive-LiftProj-MIRCut:LiftProj 0
CPXPARAM_MIP_Cuts_Disjunctive-LiftProj-MIRCut:MIRCut 0
39
Node Left Objective IInf Best_Integer Best_Bound ItCnt Gap
0 0 0.1204 16 0.1204 28
0 2 0.1204 26 0.1204 28 0 0
CPXPARAM_MIP_Cuts_Disjunctive-LiftProj-MIRCut:Disjunctive 0
CPXPARAM_MIP_Cuts_Disjunctive-LiftProj-MIRCut:LiftProj 0
CPXPARAM_MIP_Cuts_Disjunctive-LiftProj-MIRCut:MIRCut 0
